(set-info :smt-lib-version 2.6)
(set-logic QF_FP)
(set-info :source |
Generated by: Anastasiia Izycheva, Eva Darulova
Generated on: 2020-09-11
Generator: Pine (using Z3 Python API)
Application: Check inductiveness of a loop invariant
Target solver: CVC4

These benchmarks were generated while developing the tool Pine [1], which uses
CVC4/Z3 to check inductiveness of invariants. The work is described in [2].

[1] https://github.com/izycheva/pine
[2] A.Izycheva, E.Darulova, H.Seidl, SAS'20, "Counterexample- and Simulation-Guided Floating-Point Loop Invariant Synthesis"

 Loop:
   u' := u + 0.01 * v
   v' := v + 0.01 * (-0.5 * v - 9.81 * u)

 Input ranges:
   u in [0.0,0.0]
   v in [2.0,3.0]

 Invariant:
   -1.0*u + 0.24*v + 0.89*u^2 + -0.12*u*v + 0.07*v^2 <= 1.43
 and
   u in [-0.7,2.0]
   v in [-6.3,3.0]

 Query: Loop and Invariant and not Invariant'
|)
(set-info :license "https://creativecommons.org/licenses/by/4.0/")
(set-info :category "industrial")
(set-info :status unknown)
(declare-fun u!FP () (_ FloatingPoint 8 24))
(declare-fun v!FP () (_ FloatingPoint 8 24))
(declare-fun uFP () (_ FloatingPoint 8 24))
(declare-fun vFP () (_ FloatingPoint 8 24))
(assert
 (let ((?x17 (fp.mul roundNearestTiesToEven (fp.mul roundNearestTiesToEven (fp #b0 #x7b #b00011110101110000101000) v!FP) v!FP)))
 (let ((?x277 (fp.add roundNearestTiesToEven ?x17 (fp.mul roundNearestTiesToEven (fp #b1 #x7f #b00000000000000000000000) u!FP))))
 (let ((?x32 (fp.mul roundNearestTiesToEven (fp.mul roundNearestTiesToEven (fp #b1 #x7b #b11101011100001010001111) u!FP) v!FP)))
 (let ((?x165 (fp.mul roundNearestTiesToEven (fp.mul roundNearestTiesToEven (fp #b0 #x7e #b11000111101011100001010) u!FP) u!FP)))
 (let ((?x155 (fp.add roundNearestTiesToEven ?x165 (fp.add roundNearestTiesToEven ?x32 ?x277))))
 (let ((?x279 (fp.add roundNearestTiesToEven (fp.mul roundNearestTiesToEven (fp #b0 #x7c #b11101011100001010001111) v!FP) ?x155)))
 (let (($x195 (fp.leq ?x279 (fp #b0 #x7f #b01101110000101000111101))))
 (let (($x123 (fp.leq v!FP (fp #b0 #x80 #b10000000000000000000000))))
 (let (($x228 (fp.leq (fp #b1 #x81 #b10010011001100110011001) v!FP)))
 (let (($x242 (fp.leq u!FP (fp #b0 #x80 #b00000000000000000000000))))
 (let (($x81 (fp.leq (fp #b1 #x7e #b01100110011001100110011) u!FP)))
 (let ((?x147 (fp.mul roundNearestTiesToEven (fp #b0 #x82 #b00111001111010111000010) uFP)))
 (let ((?x148 (fp.sub roundNearestTiesToEven (fp.mul roundNearestTiesToEven (fp.neg (fp #b0 #x7e #b00000000000000000000000)) vFP) ?x147)))
 (let ((?x150 (fp.add roundNearestTiesToEven vFP (fp.mul roundNearestTiesToEven (fp #b0 #x78 #b01000111101011100001010) ?x148))))
 (let ((?x141 (fp.add roundNearestTiesToEven uFP (fp.mul roundNearestTiesToEven (fp #b0 #x78 #b01000111101011100001010) vFP))))
 (let (($x142 (fp.eq u!FP ?x141)))
 (let ((?x45 (fp.mul roundNearestTiesToEven (fp.mul roundNearestTiesToEven (fp #b0 #x7b #b00011110101110000101000) vFP) vFP)))
 (let ((?x97 (fp.add roundNearestTiesToEven ?x45 (fp.mul roundNearestTiesToEven (fp #b1 #x7f #b00000000000000000000000) uFP))))
 (let ((?x272 (fp.mul roundNearestTiesToEven (fp.mul roundNearestTiesToEven (fp #b1 #x7b #b11101011100001010001111) uFP) vFP)))
 (let ((?x112 (fp.mul roundNearestTiesToEven (fp.mul roundNearestTiesToEven (fp #b0 #x7e #b11000111101011100001010) uFP) uFP)))
 (let ((?x252 (fp.add roundNearestTiesToEven ?x112 (fp.add roundNearestTiesToEven ?x272 ?x97))))
 (let ((?x238 (fp.add roundNearestTiesToEven (fp.mul roundNearestTiesToEven (fp #b0 #x7c #b11101011100001010001111) vFP) ?x252)))
 (let (($x128 (fp.leq ?x238 (fp #b0 #x7f #b01101110000101000111101))))
 (let (($x92 (fp.leq vFP (fp #b0 #x80 #b10000000000000000000000))))
 (let (($x104 (fp.leq (fp #b1 #x81 #b10010011001100110011001) vFP)))
 (let (($x96 (fp.leq uFP (fp #b0 #x80 #b00000000000000000000000))))
 (let (($x240 (fp.leq (fp #b1 #x7e #b01100110011001100110011) uFP)))
 (and (and (and $x240 $x96 $x104 $x92) $x128 ) (and $x142 (fp.eq v!FP ?x150)) (or (not $x81) (not $x242) (not $x228) (not $x123) (not $x195)))))))))))))))))))))))))))))))
(check-sat)
(exit)
